************************************************************************
file with basedata            : mm14_.bas
initial value random generator: 1568216103
************************************************************************
projects                      :  1
jobs (incl. supersource/sink ):  12
horizon                       :  91
RESOURCES
  - renewable                 :  2   R
  - nonrenewable              :  2   N
  - doubly constrained        :  0   D
************************************************************************
PROJECT INFORMATION:
pronr.  #jobs rel.date duedate tardcost  MPM-Time
    1     10      0       20        7       20
************************************************************************
PRECEDENCE RELATIONS:
jobnr.    #modes  #successors   successors
   0        1          3           1   2   3
   1        3          2           4   8
   2        3          2           8  10
   3        3          1           6
   4        3          2           5  10
   5        3          1           7
   6        3          3           8   9  10
   7        3          1           9
   8        3          1          11
   9        3          1          11
  10        3          1          11
  11        1          0        
************************************************************************
REQUESTS/DURATIONS:
jobnr. mode duration  R 1  R 2  R 3  R 4  E(W 1)  E(W 2)
------------------------------------------------------------------------
  0      1     0       0    0    0    0     0       0
  1      1     4       5    0    4    5    20      36
  2      1     5      10    0    9    5    50      70
  3      1     6      10    0    5    7    60      72
  4      1     3       0    2    9   10     6      57
  5      1     2       0    7   10    6    14      32
  6      1     3       0    2    8    7     6      45
  7      1     6      10    0    9    4    60      78
  8      1     6       2    0    6    8    12      84
  9      1     5       0    8    4    5    40      45
 10      1     2       4    0    6    9     8      30
 11      1     0       0    0    0    0     0       0
************************************************************************
RESOURCEAVAILABILITIES:
  R 1  R 2
   27   114
************************************************************************
RESOURCE LIMITS:
jobnr.  l(R 1)  u(R 1)  l(R 2)  u(R 2)
------------------------------------------------------------------------
  0        0       0       0       0
  1        3       5       5       9
  2        5      10       8      14
  3        5      10       7      12
  4        1       2      10      19
  5        4       7       8      16
  6        1       2       8      15
  7        5      10       7      13
  8        1       2       7      14
  9        4       8       5       9
 10        2       4       8      15
 11        0       0       0       0
************************************************************************
SCENARIOS:
------------------------------------------------------------------------
RESOURCE k = 1
s = 1: (0, 14, 31, 41, 8, 17, 8, 46, 11, 44, 6, 0)
s = 2: (0, 22, 42, 71, 9, 19, 7, 48, 13, 48, 11, 0)
s = 3: (0, 25, 48, 78, 5, 10, 5, 52, 7, 60, 6, 0)
s = 4: (0, 18, 60, 64, 6, 12, 5, 69, 10, 42, 7, 0)
s = 5: (0, 20, 49, 91, 4, 10, 6, 109, 9, 43, 5, 0)
s = 6: (0, 19, 67, 43, 9, 19, 7, 45, 10, 32, 9, 0)
s = 7: (0, 14, 39, 53, 5, 18, 5, 71, 9, 23, 11, 0)
s = 8: (0, 28, 68, 44, 6, 14, 7, 66, 11, 46, 6, 0)
s = 9: (0, 18, 58, 63, 8, 9, 10, 47, 10, 23, 9, 0)
s = 10: (0, 21, 74, 82, 4, 22, 7, 88, 8, 52, 6, 0)
s = 11: (0, 22, 49, 80, 5, 11, 10, 51, 12, 36, 13, 0)
s = 12: (0, 35, 51, 71, 7, 15, 4, 55, 15, 44, 7, 0)
s = 13: (0, 16, 42, 33, 8, 14, 8, 76, 16, 63, 5, 0)
s = 14: (0, 17, 34, 38, 7, 13, 5, 52, 17, 35, 10, 0)
s = 15: (0, 12, 75, 51, 8, 8, 5, 92, 17, 26, 14, 0)
s = 16: (0, 16, 77, 55, 10, 13, 8, 52, 10, 30, 13, 0)
s = 17: (0, 19, 33, 45, 4, 15, 7, 33, 13, 37, 8, 0)
s = 18: (0, 17, 49, 43, 5, 12, 9, 40, 13, 54, 11, 0)
s = 19: (0, 18, 26, 46, 9, 11, 6, 53, 16, 65, 5, 0)
s = 20: (0, 26, 29, 88, 6, 10, 6, 68, 13, 35, 8, 0)
s = 21: (0, 16, 65, 58, 9, 9, 7, 42, 9, 26, 9, 0)
s = 22: (0, 18, 84, 58, 6, 20, 5, 42, 10, 52, 9, 0)
s = 23: (0, 14, 66, 67, 4, 9, 8, 48, 12, 41, 11, 0)
s = 24: (0, 14, 43, 59, 6, 21, 8, 78, 21, 45, 7, 0)
s = 25: (0, 13, 43, 53, 6, 16, 8, 75, 9, 56, 11, 0)
s = 26: (0, 22, 51, 82, 4, 14, 4, 88, 16, 51, 10, 0)
s = 27: (0, 20, 47, 50, 6, 12, 8, 46, 11, 41, 13, 0)
s = 28: (0, 19, 39, 73, 11, 19, 5, 54, 13, 30, 8, 0)
s = 29: (0, 18, 49, 40, 8, 21, 8, 82, 18, 52, 5, 0)
s = 30: (0, 25, 65, 53, 5, 9, 7, 70, 24, 46, 7, 0)
s = 31: (0, 29, 57, 78, 6, 15, 5, 57, 7, 23, 11, 0)
s = 32: (0, 14, 40, 61, 6, 14, 6, 52, 17, 70, 7, 0)
s = 33: (0, 16, 65, 77, 5, 17, 5, 41, 16, 21, 9, 0)
s = 34: (0, 22, 47, 50, 6, 22, 7, 45, 17, 35, 8, 0)
s = 35: (0, 21, 55, 89, 6, 11, 11, 40, 11, 67, 9, 0)
s = 36: (0, 11, 31, 57, 8, 11, 5, 41, 8, 51, 11, 0)
s = 37: (0, 19, 40, 83, 5, 12, 5, 63, 12, 52, 12, 0)
s = 38: (0, 17, 36, 79, 6, 12, 5, 73, 9, 40, 11, 0)
s = 39: (0, 17, 30, 113, 6, 15, 5, 82, 12, 33, 11, 0)
s = 40: (0, 27, 33, 96, 7, 14, 9, 62, 17, 43, 12, 0)
s = 41: (0, 15, 33, 37, 5, 12, 6, 41, 13, 29, 7, 0)
s = 42: (0, 32, 48, 41, 4, 20, 7, 54, 9, 57, 10, 0)
s = 43: (0, 23, 47, 65, 5, 10, 5, 62, 16, 24, 6, 0)
s = 44: (0, 26, 51, 44, 9, 15, 5, 60, 14, 53, 7, 0)
s = 45: (0, 20, 45, 71, 6, 14, 7, 50, 14, 27, 10, 0)
s = 46: (0, 19, 49, 62, 4, 18, 8, 42, 14, 55, 9, 0)
s = 47: (0, 31, 33, 64, 4, 17, 7, 51, 9, 34, 6, 0)
s = 48: (0, 33, 56, 63, 9, 19, 9, 46, 14, 44, 9, 0)
s = 49: (0, 21, 52, 45, 4, 15, 10, 58, 14, 62, 6, 0)
s = 50: (0, 29, 64, 59, 7, 14, 8, 70, 14, 50, 6, 0)
s = 51: (0, 17, 71, 39, 9, 21, 4, 53, 11, 35, 12, 0)
s = 52: (0, 27, 73, 57, 7, 8, 6, 63, 11, 55, 6, 0)
s = 53: (0, 12, 50, 72, 8, 12, 5, 86, 14, 44, 12, 0)
s = 54: (0, 31, 77, 76, 6, 20, 7, 56, 11, 40, 5, 0)
s = 55: (0, 19, 31, 52, 8, 9, 4, 71, 16, 45, 15, 0)
s = 56: (0, 27, 60, 48, 10, 19, 5, 67, 18, 30, 9, 0)
s = 57: (0, 18, 33, 74, 6, 20, 5, 108, 14, 49, 8, 0)
s = 58: (0, 33, 54, 41, 8, 9, 9, 65, 15, 39, 12, 0)
s = 59: (0, 24, 45, 57, 8, 17, 4, 45, 17, 39, 7, 0)
s = 60: (0, 15, 41, 61, 5, 10, 6, 74, 14, 49, 8, 0)
s = 61: (0, 17, 53, 61, 7, 13, 4, 99, 11, 43, 7, 0)
s = 62: (0, 12, 41, 33, 6, 20, 5, 69, 7, 54, 10, 0)
s = 63: (0, 23, 59, 63, 6, 17, 6, 54, 18, 55, 8, 0)
s = 64: (0, 30, 42, 88, 9, 12, 10, 79, 14, 38, 8, 0)
s = 65: (0, 31, 32, 54, 10, 9, 5, 72, 12, 33, 9, 0)
s = 66: (0, 15, 58, 48, 5, 17, 6, 40, 13, 65, 9, 0)
s = 67: (0, 24, 57, 37, 10, 17, 10, 50, 15, 28, 9, 0)
s = 68: (0, 24, 54, 37, 5, 15, 6, 72, 12, 36, 8, 0)
s = 69: (0, 20, 35, 46, 6, 25, 7, 99, 14, 49, 7, 0)
s = 70: (0, 28, 34, 40, 5, 18, 5, 100, 8, 44, 10, 0)
s = 71: (0, 23, 37, 55, 6, 13, 9, 53, 14, 50, 11, 0)
s = 72: (0, 33, 48, 82, 5, 20, 4, 46, 14, 45, 6, 0)
s = 73: (0, 18, 35, 59, 8, 12, 9, 43, 10, 45, 10, 0)
s = 74: (0, 16, 35, 83, 7, 19, 6, 54, 17, 36, 9, 0)
s = 75: (0, 22, 69, 65, 9, 9, 6, 35, 10, 49, 12, 0)
s = 76: (0, 12, 63, 65, 5, 10, 6, 80, 10, 35, 11, 0)
s = 77: (0, 20, 43, 91, 8, 12, 7, 50, 18, 62, 6, 0)
s = 78: (0, 14, 66, 61, 6, 16, 6, 48, 8, 39, 11, 0)
s = 79: (0, 26, 37, 58, 7, 23, 6, 61, 9, 42, 7, 0)
s = 80: (0, 16, 53, 52, 11, 14, 9, 69, 9, 28, 9, 0)
s = 81: (0, 16, 66, 95, 7, 12, 10, 63, 16, 65, 8, 0)
s = 82: (0, 18, 32, 62, 8, 16, 5, 69, 8, 39, 14, 0)
s = 83: (0, 16, 72, 66, 7, 20, 6, 70, 8, 26, 7, 0)
s = 84: (0, 23, 54, 55, 5, 12, 8, 53, 16, 43, 6, 0)
s = 85: (0, 14, 48, 90, 8, 12, 4, 79, 10, 61, 9, 0)
s = 86: (0, 25, 51, 35, 9, 14, 6, 71, 10, 28, 7, 0)
s = 87: (0, 18, 28, 35, 5, 13, 7, 90, 21, 32, 10, 0)
s = 88: (0, 25, 41, 80, 8, 12, 6, 51, 10, 49, 10, 0)
s = 89: (0, 18, 36, 75, 10, 11, 5, 39, 17, 42, 6, 0)
s = 90: (0, 27, 49, 51, 7, 11, 7, 61, 10, 38, 7, 0)
s = 91: (0, 18, 74, 76, 8, 21, 8, 76, 12, 43, 8, 0)
s = 92: (0, 16, 49, 64, 8, 15, 7, 50, 9, 37, 9, 0)
s = 93: (0, 16, 45, 65, 7, 19, 7, 54, 12, 30, 9, 0)
s = 94: (0, 15, 60, 54, 4, 10, 6, 68, 9, 52, 9, 0)
s = 95: (0, 15, 43, 73, 5, 14, 7, 62, 8, 27, 7, 0)
s = 96: (0, 13, 55, 61, 7, 19, 6, 65, 15, 54, 7, 0)
s = 97: (0, 26, 48, 63, 4, 17, 6, 58, 14, 42, 10, 0)
s = 98: (0, 28, 42, 86, 11, 9, 6, 46, 17, 27, 11, 0)
s = 99: (0, 22, 67, 53, 9, 15, 8, 60, 16, 29, 9, 0)
s = 100: (0, 23, 46, 53, 7, 13, 6, 53, 11, 26, 9, 0)
s = 101: (0, 18, 39, 37, 8, 14, 4, 49, 9, 36, 9, 0)
s = 102: (0, 20, 88, 102, 5, 16, 4, 70, 8, 42, 11, 0)
s = 103: (0, 30, 54, 41, 9, 9, 9, 67, 11, 36, 7, 0)
s = 104: (0, 20, 63, 116, 7, 10, 11, 50, 11, 52, 6, 0)
s = 105: (0, 19, 40, 41, 5, 9, 6, 93, 18, 36, 11, 0)
s = 106: (0, 11, 52, 61, 4, 16, 4, 110, 14, 40, 10, 0)
s = 107: (0, 16, 40, 45, 5, 21, 6, 44, 8, 30, 13, 0)
s = 108: (0, 24, 54, 65, 9, 23, 4, 69, 9, 49, 14, 0)
s = 109: (0, 30, 28, 94, 5, 14, 5, 68, 17, 44, 8, 0)
s = 110: (0, 28, 39, 53, 7, 8, 6, 64, 12, 50, 8, 0)
s = 111: (0, 24, 38, 47, 9, 19, 8, 78, 20, 29, 7, 0)
s = 112: (0, 20, 45, 67, 5, 17, 4, 46, 8, 30, 11, 0)
s = 113: (0, 17, 61, 92, 9, 19, 6, 44, 17, 44, 10, 0)
s = 114: (0, 28, 55, 58, 7, 15, 5, 61, 10, 47, 8, 0)
s = 115: (0, 24, 34, 43, 7, 15, 6, 63, 10, 41, 7, 0)
s = 116: (0, 21, 83, 77, 7, 14, 5, 39, 10, 31, 10, 0)
s = 117: (0, 12, 58, 85, 5, 20, 4, 63, 12, 38, 9, 0)
s = 118: (0, 19, 59, 72, 8, 11, 6, 63, 11, 31, 6, 0)
s = 119: (0, 16, 65, 59, 9, 22, 7, 75, 19, 25, 11, 0)
s = 120: (0, 17, 48, 44, 7, 19, 7, 51, 13, 48, 12, 0)
s = 121: (0, 20, 43, 53, 6, 15, 5, 56, 8, 31, 11, 0)
s = 122: (0, 16, 75, 48, 4, 16, 7, 36, 19, 26, 9, 0)
s = 123: (0, 21, 32, 101, 5, 23, 8, 43, 11, 24, 5, 0)
s = 124: (0, 29, 55, 66, 6, 9, 10, 83, 18, 65, 7, 0)
s = 125: (0, 29, 90, 76, 6, 12, 10, 47, 16, 36, 10, 0)
s = 126: (0, 24, 61, 62, 8, 20, 5, 47, 13, 49, 11, 0)
s = 127: (0, 19, 58, 59, 6, 12, 5, 51, 15, 50, 7, 0)
s = 128: (0, 23, 46, 70, 7, 19, 6, 59, 9, 54, 13, 0)
s = 129: (0, 17, 43, 85, 7, 10, 9, 54, 15, 34, 9, 0)
s = 130: (0, 24, 54, 55, 5, 13, 6, 38, 15, 50, 9, 0)
s = 131: (0, 18, 37, 58, 8, 17, 6, 59, 14, 34, 11, 0)
s = 132: (0, 23, 62, 89, 8, 10, 8, 87, 12, 43, 8, 0)
s = 133: (0, 16, 86, 100, 6, 17, 7, 97, 13, 33, 6, 0)
s = 134: (0, 26, 72, 52, 8, 18, 8, 73, 13, 62, 11, 0)
s = 135: (0, 27, 36, 96, 5, 21, 7, 78, 10, 67, 11, 0)
s = 136: (0, 18, 49, 45, 7, 14, 9, 49, 10, 60, 11, 0)
s = 137: (0, 15, 44, 71, 7, 14, 9, 75, 10, 60, 8, 0)
s = 138: (0, 25, 33, 78, 7, 10, 4, 94, 8, 45, 7, 0)
s = 139: (0, 31, 45, 70, 6, 19, 5, 49, 15, 32, 11, 0)
s = 140: (0, 31, 41, 39, 7, 21, 7, 60, 15, 26, 11, 0)
s = 141: (0, 12, 43, 56, 7, 18, 6, 72, 15, 34, 8, 0)
s = 142: (0, 17, 48, 58, 5, 9, 8, 56, 13, 46, 11, 0)
s = 143: (0, 29, 72, 39, 5, 10, 9, 46, 8, 38, 9, 0)
s = 144: (0, 16, 60, 60, 7, 11, 10, 48, 19, 46, 8, 0)
s = 145: (0, 18, 34, 61, 5, 12, 6, 84, 15, 31, 6, 0)
s = 146: (0, 15, 64, 39, 7, 21, 7, 66, 10, 24, 11, 0)
s = 147: (0, 24, 49, 41, 10, 20, 6, 71, 9, 33, 9, 0)
s = 148: (0, 24, 67, 84, 7, 16, 6, 58, 12, 42, 8, 0)
s = 149: (0, 13, 63, 52, 4, 21, 5, 60, 15, 44, 7, 0)
s = 150: (0, 13, 40, 81, 4, 17, 8, 50, 10, 33, 10, 0)
s = 151: (0, 12, 32, 55, 10, 10, 5, 36, 9, 37, 8, 0)
s = 152: (0, 30, 74, 46, 5, 9, 6, 105, 11, 39, 11, 0)
s = 153: (0, 18, 68, 57, 7, 8, 7, 76, 11, 22, 8, 0)
s = 154: (0, 21, 58, 83, 6, 16, 6, 36, 17, 27, 9, 0)
s = 155: (0, 28, 86, 49, 5, 16, 9, 63, 8, 37, 6, 0)
s = 156: (0, 14, 58, 75, 5, 15, 7, 57, 14, 25, 7, 0)
s = 157: (0, 17, 56, 39, 11, 14, 10, 76, 16, 21, 8, 0)
s = 158: (0, 18, 38, 78, 10, 15, 10, 65, 14, 53, 7, 0)
s = 159: (0, 17, 26, 53, 5, 16, 5, 45, 9, 29, 6, 0)
s = 160: (0, 19, 56, 52, 5, 10, 6, 55, 10, 25, 8, 0)
s = 161: (0, 19, 34, 78, 8, 10, 8, 70, 10, 38, 8, 0)
s = 162: (0, 31, 44, 60, 9, 12, 5, 83, 12, 37, 8, 0)
s = 163: (0, 20, 39, 37, 4, 15, 5, 67, 13, 53, 7, 0)
s = 164: (0, 30, 46, 53, 6, 16, 8, 51, 17, 59, 8, 0)
s = 165: (0, 24, 41, 62, 8, 15, 7, 53, 14, 33, 5, 0)
s = 166: (0, 18, 37, 83, 7, 15, 7, 66, 16, 35, 6, 0)
s = 167: (0, 18, 65, 77, 6, 15, 7, 63, 12, 26, 8, 0)
s = 168: (0, 21, 58, 65, 6, 24, 7, 51, 13, 43, 7, 0)
s = 169: (0, 24, 52, 57, 6, 20, 5, 58, 9, 27, 8, 0)
s = 170: (0, 16, 32, 68, 8, 21, 6, 50, 16, 33, 10, 0)
s = 171: (0, 17, 31, 71, 6, 11, 9, 59, 13, 35, 8, 0)
s = 172: (0, 25, 55, 59, 9, 12, 9, 56, 11, 28, 6, 0)
s = 173: (0, 20, 50, 59, 5, 14, 7, 57, 11, 40, 14, 0)
s = 174: (0, 26, 40, 82, 8, 20, 6, 73, 12, 24, 10, 0)
s = 175: (0, 17, 36, 61, 6, 10, 8, 62, 13, 41, 6, 0)
s = 176: (0, 16, 51, 73, 6, 13, 5, 54, 18, 37, 5, 0)
s = 177: (0, 19, 35, 77, 6, 18, 7, 77, 10, 30, 8, 0)
s = 178: (0, 12, 69, 52, 4, 10, 9, 111, 14, 24, 7, 0)
s = 179: (0, 15, 37, 68, 6, 22, 5, 52, 10, 39, 13, 0)
s = 180: (0, 18, 27, 57, 8, 12, 5, 91, 15, 43, 10, 0)
s = 181: (0, 21, 46, 79, 5, 12, 6, 45, 17, 31, 8, 0)
s = 182: (0, 23, 38, 68, 7, 14, 6, 43, 15, 33, 7, 0)
s = 183: (0, 20, 51, 78, 7, 9, 9, 48, 12, 22, 5, 0)
s = 184: (0, 35, 29, 42, 7, 15, 7, 40, 9, 29, 11, 0)
s = 185: (0, 21, 42, 45, 9, 11, 6, 74, 17, 57, 6, 0)
s = 186: (0, 17, 32, 55, 8, 17, 8, 36, 11, 51, 6, 0)
s = 187: (0, 30, 38, 68, 7, 13, 8, 62, 18, 33, 9, 0)
s = 188: (0, 16, 44, 55, 5, 19, 8, 54, 16, 29, 6, 0)
s = 189: (0, 14, 84, 53, 7, 9, 5, 46, 7, 30, 10, 0)
s = 190: (0, 13, 67, 53, 5, 8, 8, 39, 10, 43, 13, 0)
s = 191: (0, 15, 50, 67, 6, 13, 10, 56, 14, 24, 11, 0)
s = 192: (0, 24, 57, 88, 5, 17, 7, 57, 18, 48, 6, 0)
s = 193: (0, 16, 56, 62, 4, 17, 5, 45, 12, 24, 12, 0)
s = 194: (0, 15, 68, 75, 5, 11, 8, 62, 15, 45, 9, 0)
s = 195: (0, 23, 54, 62, 5, 11, 5, 87, 14, 47, 6, 0)
s = 196: (0, 24, 46, 106, 4, 19, 6, 69, 16, 35, 12, 0)
s = 197: (0, 23, 39, 66, 7, 16, 6, 54, 9, 47, 9, 0)
s = 198: (0, 25, 61, 41, 8, 14, 6, 94, 15, 35, 7, 0)
s = 199: (0, 20, 33, 36, 6, 18, 5, 67, 9, 40, 5, 0)
s = 200: (0, 19, 81, 46, 6, 17, 7, 57, 11, 57, 11, 0)
------------------------------------------------------------------------
RESOURCE k = 2
s = 1: (0, 25, 43, 49, 72, 38, 54, 59, 72, 49, 22, 0)
s = 2: (0, 39, 59, 85, 77, 43, 52, 62, 85, 54, 41, 0)
s = 3: (0, 45, 67, 94, 43, 22, 34, 67, 47, 68, 19, 0)
s = 4: (0, 31, 84, 77, 51, 27, 31, 89, 66, 47, 24, 0)
s = 5: (0, 36, 68, 109, 38, 21, 41, 141, 57, 48, 18, 0)
s = 6: (0, 33, 94, 51, 77, 43, 52, 58, 70, 36, 34, 0)
s = 7: (0, 25, 54, 64, 42, 41, 38, 92, 58, 26, 40, 0)
s = 8: (0, 51, 95, 53, 56, 32, 52, 86, 73, 52, 21, 0)
s = 9: (0, 32, 81, 75, 73, 19, 71, 60, 68, 25, 31, 0)
s = 10: (0, 37, 104, 98, 37, 49, 50, 115, 52, 58, 22, 0)
s = 11: (0, 40, 68, 96, 47, 25, 70, 67, 79, 40, 46, 0)
s = 12: (0, 62, 72, 86, 67, 34, 26, 72, 103, 49, 24, 0)
s = 13: (0, 28, 58, 40, 76, 32, 59, 99, 108, 71, 18, 0)
s = 14: (0, 31, 47, 46, 59, 29, 33, 68, 118, 39, 37, 0)
s = 15: (0, 22, 104, 61, 73, 18, 35, 120, 119, 29, 50, 0)
s = 16: (0, 29, 107, 66, 89, 29, 58, 68, 70, 34, 47, 0)
s = 17: (0, 34, 47, 54, 37, 34, 51, 43, 85, 42, 27, 0)
s = 18: (0, 30, 68, 51, 44, 27, 67, 52, 85, 61, 41, 0)
s = 19: (0, 32, 37, 56, 85, 25, 42, 69, 108, 73, 19, 0)
s = 20: (0, 46, 41, 106, 52, 22, 43, 88, 87, 39, 28, 0)
s = 21: (0, 29, 91, 70, 81, 20, 50, 55, 62, 29, 32, 0)
s = 22: (0, 32, 117, 69, 56, 45, 36, 55, 65, 58, 32, 0)
s = 23: (0, 26, 92, 80, 35, 20, 54, 63, 84, 46, 38, 0)
s = 24: (0, 25, 60, 71, 56, 48, 58, 101, 146, 50, 25, 0)
s = 25: (0, 23, 60, 64, 54, 35, 59, 97, 58, 63, 39, 0)
s = 26: (0, 38, 71, 98, 35, 32, 27, 115, 106, 57, 36, 0)
s = 27: (0, 36, 66, 59, 56, 27, 54, 60, 71, 47, 47, 0)
s = 28: (0, 33, 54, 87, 98, 43, 37, 70, 87, 34, 28, 0)
s = 29: (0, 33, 68, 48, 68, 47, 59, 107, 122, 59, 19, 0)
s = 30: (0, 45, 90, 64, 46, 19, 46, 91, 164, 52, 26, 0)
s = 31: (0, 52, 79, 93, 56, 34, 36, 74, 49, 26, 41, 0)
s = 32: (0, 25, 55, 74, 57, 30, 45, 67, 119, 78, 25, 0)
s = 33: (0, 29, 91, 92, 44, 38, 33, 54, 106, 24, 34, 0)
s = 34: (0, 40, 66, 60, 52, 50, 47, 58, 113, 40, 29, 0)
s = 35: (0, 37, 76, 106, 49, 24, 82, 51, 71, 76, 31, 0)
s = 36: (0, 20, 43, 69, 69, 25, 36, 53, 56, 57, 40, 0)
s = 37: (0, 34, 55, 100, 41, 28, 32, 82, 81, 59, 42, 0)
s = 38: (0, 31, 50, 95, 57, 28, 31, 95, 61, 45, 38, 0)
s = 39: (0, 31, 42, 136, 52, 34, 34, 106, 84, 37, 40, 0)
s = 40: (0, 48, 46, 115, 66, 31, 61, 80, 115, 48, 45, 0)
s = 41: (0, 27, 46, 45, 47, 27, 43, 53, 91, 33, 26, 0)
s = 42: (0, 57, 67, 50, 31, 46, 49, 70, 57, 64, 36, 0)
s = 43: (0, 41, 66, 78, 40, 22, 34, 80, 111, 27, 22, 0)
s = 44: (0, 47, 71, 53, 81, 34, 31, 78, 93, 60, 25, 0)
s = 45: (0, 35, 62, 86, 55, 32, 46, 64, 98, 31, 37, 0)
s = 46: (0, 33, 69, 75, 35, 39, 55, 54, 96, 62, 33, 0)
s = 47: (0, 56, 46, 76, 38, 37, 49, 66, 58, 38, 20, 0)
s = 48: (0, 58, 78, 76, 78, 42, 61, 59, 94, 50, 34, 0)
s = 49: (0, 38, 73, 53, 37, 34, 69, 75, 96, 70, 20, 0)
s = 50: (0, 52, 89, 70, 59, 31, 57, 91, 93, 56, 22, 0)
s = 51: (0, 31, 99, 47, 85, 47, 29, 69, 77, 39, 44, 0)
s = 52: (0, 48, 103, 68, 60, 18, 40, 82, 77, 61, 22, 0)
s = 53: (0, 21, 69, 87, 74, 26, 35, 111, 98, 50, 44, 0)
s = 54: (0, 55, 108, 91, 49, 44, 48, 72, 72, 45, 19, 0)
s = 55: (0, 33, 43, 63, 76, 21, 28, 92, 109, 51, 54, 0)
s = 56: (0, 48, 84, 57, 88, 42, 34, 86, 123, 33, 32, 0)
s = 57: (0, 32, 46, 89, 54, 46, 31, 140, 94, 56, 27, 0)
s = 58: (0, 60, 75, 49, 69, 20, 61, 84, 103, 43, 45, 0)
s = 59: (0, 43, 63, 69, 73, 37, 28, 58, 113, 43, 26, 0)
s = 60: (0, 26, 57, 73, 48, 21, 42, 95, 94, 55, 27, 0)
s = 61: (0, 30, 74, 73, 58, 29, 26, 129, 71, 48, 26, 0)
s = 62: (0, 21, 57, 40, 57, 46, 32, 90, 49, 61, 37, 0)
s = 63: (0, 41, 83, 75, 52, 38, 41, 70, 121, 62, 27, 0)
s = 64: (0, 53, 58, 105, 80, 26, 72, 103, 98, 43, 30, 0)
s = 65: (0, 55, 45, 65, 89, 19, 32, 93, 84, 37, 33, 0)
s = 66: (0, 27, 81, 58, 41, 39, 45, 52, 89, 73, 32, 0)
s = 67: (0, 44, 80, 44, 86, 39, 71, 65, 100, 32, 33, 0)
s = 68: (0, 43, 76, 44, 47, 34, 39, 94, 82, 40, 28, 0)
s = 69: (0, 35, 48, 55, 57, 56, 48, 128, 94, 55, 26, 0)
s = 70: (0, 50, 47, 48, 46, 41, 31, 130, 51, 49, 38, 0)
s = 71: (0, 42, 52, 66, 53, 30, 64, 68, 95, 57, 41, 0)
s = 72: (0, 60, 67, 98, 40, 44, 28, 60, 96, 50, 22, 0)
s = 73: (0, 32, 49, 71, 70, 27, 66, 56, 64, 50, 35, 0)
s = 74: (0, 28, 49, 99, 65, 42, 44, 70, 114, 41, 33, 0)
s = 75: (0, 39, 97, 78, 82, 20, 38, 46, 69, 55, 43, 0)
s = 76: (0, 22, 88, 78, 46, 23, 42, 104, 68, 39, 41, 0)
s = 77: (0, 36, 60, 109, 68, 27, 47, 65, 124, 70, 22, 0)
s = 78: (0, 25, 92, 73, 50, 36, 45, 63, 55, 43, 40, 0)
s = 79: (0, 46, 51, 69, 65, 51, 41, 79, 57, 47, 26, 0)
s = 80: (0, 29, 74, 63, 98, 32, 65, 89, 59, 31, 34, 0)
s = 81: (0, 28, 92, 113, 66, 28, 72, 81, 106, 73, 27, 0)
s = 82: (0, 32, 45, 75, 76, 36, 34, 89, 53, 44, 53, 0)
s = 83: (0, 28, 100, 79, 64, 45, 43, 91, 50, 29, 24, 0)
s = 84: (0, 41, 76, 66, 44, 26, 53, 69, 110, 48, 19, 0)
s = 85: (0, 24, 67, 108, 75, 27, 30, 103, 68, 69, 34, 0)
s = 86: (0, 45, 72, 42, 83, 31, 40, 92, 66, 32, 24, 0)
s = 87: (0, 31, 39, 42, 44, 29, 48, 116, 147, 36, 37, 0)
s = 88: (0, 45, 57, 95, 71, 26, 44, 66, 65, 55, 38, 0)
s = 89: (0, 32, 50, 90, 91, 24, 33, 51, 115, 48, 19, 0)
s = 90: (0, 48, 69, 61, 65, 23, 51, 79, 66, 43, 26, 0)
s = 91: (0, 32, 103, 92, 75, 48, 59, 98, 84, 48, 30, 0)
s = 92: (0, 29, 68, 76, 69, 35, 50, 65, 58, 42, 31, 0)
s = 93: (0, 28, 62, 78, 58, 43, 53, 71, 80, 34, 33, 0)
s = 94: (0, 27, 84, 64, 35, 22, 38, 89, 60, 58, 34, 0)
s = 95: (0, 27, 59, 87, 48, 32, 48, 80, 53, 30, 23, 0)
s = 96: (0, 22, 77, 73, 60, 43, 42, 85, 101, 60, 26, 0)
s = 97: (0, 46, 67, 75, 37, 37, 43, 75, 95, 47, 36, 0)
s = 98: (0, 49, 59, 103, 97, 21, 42, 60, 117, 30, 42, 0)
s = 99: (0, 39, 94, 63, 83, 34, 59, 78, 110, 33, 31, 0)
s = 100: (0, 42, 64, 64, 62, 30, 42, 68, 76, 30, 34, 0)
s = 101: (0, 31, 54, 45, 73, 32, 29, 63, 63, 41, 34, 0)
s = 102: (0, 35, 123, 122, 47, 35, 29, 91, 52, 48, 39, 0)
s = 103: (0, 53, 75, 49, 84, 21, 67, 87, 74, 41, 23, 0)
s = 104: (0, 35, 89, 139, 64, 23, 80, 65, 74, 59, 20, 0)
s = 105: (0, 34, 55, 49, 44, 20, 38, 120, 126, 40, 39, 0)
s = 106: (0, 20, 73, 73, 37, 36, 25, 143, 92, 45, 35, 0)
s = 107: (0, 28, 55, 54, 42, 46, 39, 58, 50, 34, 48, 0)
s = 108: (0, 43, 75, 78, 85, 51, 26, 90, 61, 55, 53, 0)
s = 109: (0, 54, 39, 113, 45, 30, 36, 89, 114, 49, 29, 0)
s = 110: (0, 50, 54, 64, 59, 17, 42, 84, 84, 56, 27, 0)
s = 111: (0, 42, 52, 56, 78, 44, 58, 102, 138, 33, 24, 0)
s = 112: (0, 36, 63, 80, 44, 38, 28, 59, 54, 33, 42, 0)
s = 113: (0, 29, 85, 110, 79, 43, 38, 57, 116, 50, 38, 0)
s = 114: (0, 50, 77, 69, 62, 35, 31, 79, 64, 53, 27, 0)
s = 115: (0, 43, 47, 52, 63, 34, 43, 82, 69, 46, 26, 0)
s = 116: (0, 38, 116, 93, 58, 32, 37, 51, 70, 35, 37, 0)
s = 117: (0, 20, 81, 101, 40, 44, 29, 82, 79, 42, 33, 0)
s = 118: (0, 34, 82, 87, 71, 25, 39, 82, 76, 35, 20, 0)
s = 119: (0, 28, 91, 71, 79, 49, 48, 97, 131, 28, 40, 0)
s = 120: (0, 30, 68, 53, 63, 44, 50, 66, 88, 54, 44, 0)
s = 121: (0, 36, 60, 64, 51, 34, 31, 72, 53, 35, 39, 0)
s = 122: (0, 29, 105, 57, 38, 35, 46, 46, 127, 29, 32, 0)
s = 123: (0, 37, 44, 121, 44, 52, 58, 56, 71, 27, 19, 0)
s = 124: (0, 52, 76, 79, 48, 21, 71, 108, 124, 73, 24, 0)
s = 125: (0, 51, 126, 92, 52, 28, 70, 61, 109, 41, 35, 0)
s = 126: (0, 42, 86, 74, 69, 44, 33, 61, 91, 55, 41, 0)
s = 127: (0, 34, 81, 70, 56, 28, 38, 66, 101, 56, 24, 0)
s = 128: (0, 41, 64, 84, 62, 43, 45, 76, 57, 60, 48, 0)
s = 129: (0, 31, 60, 102, 66, 22, 61, 70, 99, 38, 31, 0)
s = 130: (0, 44, 75, 66, 45, 29, 41, 49, 105, 57, 32, 0)
s = 131: (0, 32, 51, 70, 74, 39, 40, 77, 97, 38, 40, 0)
s = 132: (0, 41, 87, 107, 72, 22, 53, 114, 82, 48, 28, 0)
s = 133: (0, 29, 120, 120, 56, 39, 53, 126, 91, 38, 20, 0)
s = 134: (0, 46, 101, 63, 75, 40, 58, 95, 89, 70, 38, 0)
s = 135: (0, 48, 50, 115, 47, 48, 47, 101, 64, 75, 39, 0)
s = 136: (0, 32, 68, 53, 66, 30, 68, 63, 67, 68, 40, 0)
s = 137: (0, 26, 61, 85, 67, 30, 65, 97, 70, 68, 27, 0)
s = 138: (0, 45, 46, 93, 59, 23, 29, 121, 56, 50, 25, 0)
s = 139: (0, 56, 63, 84, 57, 43, 36, 64, 99, 36, 39, 0)
s = 140: (0, 55, 58, 47, 62, 48, 53, 78, 101, 29, 39, 0)
s = 141: (0, 20, 61, 67, 62, 40, 42, 93, 105, 38, 29, 0)
s = 142: (0, 31, 67, 69, 44, 19, 57, 73, 90, 52, 41, 0)
s = 143: (0, 52, 100, 47, 42, 23, 62, 59, 55, 42, 31, 0)
s = 144: (0, 28, 84, 72, 64, 26, 70, 62, 129, 52, 29, 0)
s = 145: (0, 32, 48, 74, 42, 26, 45, 109, 99, 35, 23, 0)
s = 146: (0, 26, 90, 47, 62, 48, 49, 86, 65, 27, 39, 0)
s = 147: (0, 43, 68, 49, 93, 45, 44, 93, 58, 37, 32, 0)
s = 148: (0, 43, 94, 100, 62, 35, 44, 75, 78, 47, 30, 0)
s = 149: (0, 24, 88, 62, 37, 46, 32, 77, 104, 49, 23, 0)
s = 150: (0, 23, 56, 97, 33, 39, 55, 65, 68, 37, 35, 0)
s = 151: (0, 21, 45, 66, 86, 23, 31, 46, 63, 41, 27, 0)
s = 152: (0, 54, 104, 55, 46, 20, 42, 137, 75, 43, 39, 0)
s = 153: (0, 32, 95, 69, 65, 18, 46, 99, 72, 24, 28, 0)
s = 154: (0, 37, 81, 99, 55, 36, 42, 47, 115, 31, 32, 0)
s = 155: (0, 50, 120, 59, 45, 37, 67, 82, 53, 41, 19, 0)
s = 156: (0, 24, 81, 89, 42, 34, 47, 74, 94, 28, 26, 0)
s = 157: (0, 30, 79, 47, 102, 31, 73, 99, 112, 24, 27, 0)
s = 158: (0, 33, 53, 93, 88, 33, 73, 84, 94, 60, 26, 0)
s = 159: (0, 31, 37, 63, 40, 37, 32, 58, 60, 32, 19, 0)
s = 160: (0, 34, 78, 62, 45, 23, 42, 71, 70, 28, 27, 0)
s = 161: (0, 34, 47, 93, 67, 22, 57, 91, 65, 43, 28, 0)
s = 162: (0, 56, 61, 72, 80, 28, 35, 107, 82, 42, 30, 0)
s = 163: (0, 35, 55, 44, 33, 33, 31, 87, 85, 60, 24, 0)
s = 164: (0, 54, 64, 63, 57, 36, 54, 66, 113, 66, 30, 0)
s = 165: (0, 43, 57, 74, 69, 34, 52, 69, 97, 37, 19, 0)
s = 166: (0, 31, 52, 100, 60, 33, 48, 86, 109, 40, 21, 0)
s = 167: (0, 32, 90, 92, 53, 33, 53, 81, 80, 29, 29, 0)
s = 168: (0, 38, 81, 78, 51, 53, 52, 67, 85, 48, 24, 0)
s = 169: (0, 43, 73, 69, 55, 45, 35, 75, 58, 30, 30, 0)
s = 170: (0, 29, 44, 81, 70, 48, 43, 65, 112, 37, 36, 0)
s = 171: (0, 30, 43, 85, 55, 24, 62, 76, 87, 39, 28, 0)
s = 172: (0, 44, 76, 71, 78, 27, 66, 72, 75, 32, 21, 0)
s = 173: (0, 36, 69, 71, 40, 30, 48, 74, 74, 45, 50, 0)
s = 174: (0, 47, 55, 98, 73, 44, 43, 94, 79, 27, 37, 0)
s = 175: (0, 30, 51, 74, 50, 22, 55, 81, 88, 46, 22, 0)
s = 176: (0, 29, 71, 87, 52, 30, 38, 70, 123, 42, 19, 0)
s = 177: (0, 33, 49, 92, 51, 41, 49, 101, 65, 34, 28, 0)
s = 178: (0, 22, 97, 62, 34, 23, 66, 144, 94, 27, 23, 0)
s = 179: (0, 27, 52, 82, 49, 50, 33, 67, 64, 43, 48, 0)
s = 180: (0, 32, 37, 68, 67, 27, 33, 118, 99, 48, 36, 0)
s = 181: (0, 37, 65, 94, 46, 27, 43, 58, 116, 34, 30, 0)
s = 182: (0, 40, 54, 82, 59, 30, 39, 56, 99, 37, 24, 0)
s = 183: (0, 36, 72, 93, 65, 19, 67, 62, 84, 25, 17, 0)
s = 184: (0, 63, 41, 50, 63, 33, 46, 52, 58, 33, 40, 0)
s = 185: (0, 37, 58, 54, 83, 24, 41, 96, 118, 64, 23, 0)
s = 186: (0, 30, 45, 66, 73, 38, 59, 47, 76, 57, 23, 0)
s = 187: (0, 53, 53, 82, 65, 29, 54, 81, 120, 37, 33, 0)
s = 188: (0, 29, 61, 65, 40, 42, 60, 71, 112, 33, 20, 0)
s = 189: (0, 25, 117, 63, 61, 19, 37, 59, 49, 34, 37, 0)
s = 190: (0, 24, 94, 63, 43, 18, 57, 50, 69, 49, 48, 0)
s = 191: (0, 27, 70, 81, 51, 28, 68, 72, 95, 27, 39, 0)
s = 192: (0, 43, 80, 105, 48, 39, 52, 74, 121, 54, 22, 0)
s = 193: (0, 29, 78, 74, 37, 39, 34, 59, 78, 27, 44, 0)
s = 194: (0, 27, 95, 90, 43, 24, 58, 80, 105, 50, 32, 0)
s = 195: (0, 41, 76, 74, 47, 25, 35, 112, 97, 52, 22, 0)
s = 196: (0, 43, 64, 127, 35, 43, 43, 89, 107, 40, 44, 0)
s = 197: (0, 40, 55, 80, 64, 36, 42, 70, 59, 52, 31, 0)
s = 198: (0, 45, 86, 49, 71, 30, 41, 122, 105, 39, 26, 0)
s = 199: (0, 35, 47, 43, 57, 41, 36, 87, 61, 45, 19, 0)
s = 200: (0, 34, 113, 55, 55, 38, 46, 74, 73, 64, 42, 0)
************************************************************************
ES/LS-VALUES:
jobnr.   ES(i)    LS(i)
------------------------------------------------------------------------
  0        0        0
  1        0       53
  2        0       70
  3        0       61
  4        7       60
  5       12       66
  6       11       73
  7       15       70
  8       16       79
  9       26       82
 10       16       87
 11       34       91
************************************************************************
BIG-M-VALUES:
M1 = 48, M2 = 255
************************************************************************
